92	0

0	3	2	3	4
5	2	6	7
10	6	8	9	12	17	21	29
1	3	5	6	7
10	4	10	11	13	15
5	6	8	9	12	17	21	29
4	7	8	9	12	14	17	21	29
7	3	25	27	30
1	4	10	11	13	15
5	7	24	25	26	27	28	30	32
2	5	16	19	22	23	33
4	3	22	23	33
1	4	16	18	19	20
4	5	16	19	22	23	33
1	4	16	18	19	20
4	3	25	27	30
10	7	34	35	36	38	40	41	42
2	3	22	23	33
3	7	24	25	26	27	28	30	32
2	3	22	23	33
5	7	24	25	26	27	28	30	32
5	7	31	34	35	37	38	39	40
2	7	24	25	26	27	28	30	32
9	4	36	38	41	42
2	7	31	34	35	37	38	39	40
8	5	36	38	40	41	42
4	6	35	36	38	40	41	42
3	7	31	34	35	37	38	39	40
9	7	31	34	35	37	38	39	40
9	3	36	41	42
7	3	36	41	42
8	5	36	38	40	41	42
7	6	35	36	38	40	41	42
8	2	43	44
10	5	45	46	47	48	50
8	8	53	54	57	58	59	60	62	67
10	2	43	44
6	5	45	46	47	48	50
10	2	43	44
9	7	49	51	52	58	59	60	62
3	2	43	44
8	8	53	54	57	58	59	60	62	67
2	5	45	46	47	48	50
2	5	45	46	47	48	50
2	7	49	51	52	58	59	60	62
10	7	54	55	56	61	67	71	76
7	4	53	54	57	67
2	7	49	51	52	58	59	60	62
7	3	53	54	67
4	7	53	54	57	59	60	62	67
8	7	54	55	56	61	67	71	76
4	4	53	54	57	67
2	5	55	56	61	71	76
8	3	68	69	74
4	5	63	64	65	66	70
7	3	68	69	74
9	3	63	64	70
10	6	61	63	65	66	71	76
10	6	63	64	65	66	70	71
9	6	61	63	65	66	71	76
4	2	64	70
10	6	63	64	65	66	70	71
2	3	68	69	74
1	3	68	69	74
8	5	77	78	79	80	86
7	5	77	78	79	80	86
9	2	72	75
1	2	72	75
8	3	82	83	87
3	4	73	79	81	86
7	4	73	79	81	86
2	4	73	79	81	86
3	3	77	78	80
6	3	77	78	80
4	5	77	78	79	80	86
10	5	77	78	79	80	86
3	2	84	85
1	3	82	83	87
8	1	84
2	3	82	83	87
10	1	84
4	2	84	85
4	2	84	85
1	2	88	89
2	2	88	89
10	2	90	91
8	1	91
1	2	90	91
8	1	92
2	1	92
2	1	92
0	0
